problem_generation/data/GISP/train/er_n=66_m=1234_p=0.60_SET2_setparam=100.00_alpha=0.50_132.lp
maximize
OBJ:100x0 + 100x1 + 100x2 + 100x3 + 100x4 + 100x5 + 100x6 + 100x7 + 100x8 + 100x9 + 100x10 + 100x11 + 100x12 + 100x13 + 100x14 + 100x15 + 100x16 + 100x17 + 100x18 + 100x19 + 100x20 + 100x21 + 100x22 + 100x23 + 100x24 + 100x25 + 100x26 + 100x27 + 100x28 + 100x29 + 100x30 + 100x31 + 100x32 + 100x33 + 100x34 + 100x35 + 100x36 + 100x37 + 100x38 + 100x39 + 100x40 + 100x41 + 100x42 + 100x43 + 100x44 + 100x45 + 100x46 + 100x47 + 100x48 + 100x49 + 100x50 + 100x51 + 100x52 + 100x53 + 100x54 + 100x55 + 100x56 + 100x57 + 100x58 + 100x59 + 100x60 + 100x61 + 100x62 + 100x63 + 100x64 + 100x65 - y7_26 - y26_39 - y18_35 - y9_63 - y0_5 - y29_41 - y8_18 - y6_48 - y40_50 - y21_46 - y10_36 - y10_45 - y10_54 - y3_15 - y22_46 - y3_42 - y14_42 - y14_51 - y36_48 - y47_48 - y17_44 - y5_60 - y0_9 - y48_58 - y29_54 - y21_59 - y33_42 - y2_36 - y25_38 - y10_49 - y2_54 - y14_19 - y13_51 - y43_64 - y35_60 - y3_37 - y28_39 - y47_52 - y17_48 - y36_61 - y9_44 - y47_61 - y5_64 - y21_27 - y29_40 - y48_53 - y21_45 - y10_17 - y10_26 - y2_22 - y54_60 - y10_35 - y12_63 - y2_40 - y25_42 - y2_49 - y24_46 - y14_23 - y24_55 - y17_25 - y28_34 - y28_43 - y9_39 - y5_50 - y28_52 - y47_65 - y9_48 - y5_59 - y28_61 - y21_22 - y50_58 - y6_33 - y29_35 - y21_40 - y21_49 - y39_48 - y2_8 - y10_30 - y12_58 - y3_9 - y51_58 - y3_18 - y16_37 - y13_50 - y24_50 - y43_63 - y13_59 - y24_59 - y5_27 - y36_51 - y28_47 - y9_43 - y5_63 - y50_62 - y61_62 - y42_58 - y39_52 - y31_48 - y62_63 - y12_44 - y54_59 - y23_53 - y23_62 - y32_40 - y24_36 - y1_43 - y24_45 - y43_58 - y16_59 - y46_60 - y28_42 - y30_60 - y20_34 - y10_11 - y39_47 - y39_56 - y12_39 - y23_39 - y2_16 - y20_61 - y31_61 - y12_57 - y23_57 - y4_53 - y13_31 - y43_44 - y13_40 - y16_36 - y13_49 - y16_45 - y5_8 - y5_17 - y46_64 - y9_24 - y38_60 - y5_35 - y28_37 - y49_60 - y9_33 - y5_44 - y6_18 - y27_50 - y42_48 - y19_55 - y12_34 - y23_34 - y20_47 - y4_30 - y39_60 - y12_52 - y31_65 - y4_48 - y12_61 - y23_61 - y32_39 - y34_58 - y24_35 - y16_31 - y13_44 - y24_44 - y35_44 - y16_40 - y16_49 - y17_23 - y15_53 - y9_28 - y15_62 - y6_13 - y19_32 - y30_41 - y42_43 - y11_37 - y30_50 - y42_52 - y11_46 - y0_55 - y12_29 - y20_42 - y4_25 - y23_38 - y20_51 - y1_10 - y12_56 - y23_56 - y1_28 - y13_30 - y4_61 - y24_30 - y45_62 - y56_62 - y37_58 - y9_14 - y38_50 - y5_25 - y49_50 - y38_59 - y49_59 - y18_53 - y18_62 - y27_40 - y8_54 - y60_64 - y0_59 - y11_59 - y23_24 - y31_37 - y12_33 - y4_29 - y12_42 - y23_42 - y34_48 - y24_25 - y3_51 - y3_60 - y14_60 - y15_34 - y26_34 - y7_39 - y49_54 - y7_48 - y18_48 - y26_61 - y49_63 - y18_57 - y8_22 - y27_35 - y11_18 - y27_44 - y30_40 - y30_58 - y11_54 - y31_32 - y23_28 - y52_64 - y44_60 - y23_37 - y4_33 - y2_63 - y22_41 - y53_56 - y22_50 - y45_52 - y53_65 - y56_61 - y3_55 - y15_38 - y38_40 - y7_34 - y18_34 - y15_47 - y7_52 - y7_61 - y0_22 - y29_58 - y8_35 - y0_31 - y19_44 - y21_63 - y30_44 - y11_49 - y41_50 - y44_46 - y12_23 - y52_59 - y10_53 - y33_55 - y44_55 - y34_56 - y45_56 - y14_50 - y22_63 - y56_65 - y37_61 - y7_20 - y18_20 - y15_33 - y26_42 - y7_38 - y7_47 - y8_21 - y48_57 - y11_17 - y40_53 - y0_26 - y11_26 - y21_58 - y33_41 - y52_54 - y44_50 - y25_46 - y25_55 - y3_27 - y14_27 - y34_42 - y14_36 - y3_45 - y37_47 - y37_56 - y7_33 - y18_33 - y26_46 - y17_65 - y29_39 - y40_48 - y19_25 - y21_44 - y6_55 - y11_21 - y40_57 - y21_53 - y21_62 - y41_58 - y44_54 - y25_50 - y51_62 - y2_57 - y14_31 - y22_53 - y18_19 - y18_28 - y47_64 - y17_60 - y7_37 - y29_34 - y6_41 - y29_43 - y21_39 - y6_50 - y11_16 - y40_52 - y48_65 - y6_59 - y29_61 - y21_57 - y25_27 - y33_40 - y3_8 - y51_57 - y14_17 - y32_53 - y3_26 - y14_26 - y22_39 - y13_58 - y14_35 - y3_44 - y14_44 - y36_50 - y47_50 - y17_46 - y28_46 - y59_61 - y17_55 - y5_62 - y17_64 - y9_60 - y21_25 - y0_2 - y6_45 - y29_47 - y21_61 - y2_20 - y10_33 - y2_29 - y10_42 - y2_38 - y10_51 - y51_52 - y3_12 - y2_56 - y14_30 - y28_41 - y36_54 - y47_63 - y28_59 - y58_60 - y6_31 - y6_40 - y21_38 - y40_51 - y21_47 - y10_28 - y39_64 - y20_60 - y25_26 - y31_60 - y23_65 - y51_56 - y35_39 - y14_25 - y16_44 - y43_61 - y1_55 - y13_57 - y17_18 - y1_64 - y9_23 - y5_43 - y6_8 - y5_52 - y6_17 - y5_61 - y28_63 - y58_64 - y9_59 - y21_24 - y10_14 - y2_19 - y31_55 - y54_57 - y12_51 - y23_51 - y12_60 - y4_56 - y13_34 - y32_47 - y43_47 - y51_60 - y16_39 - y24_52 - y13_61 - y16_57 - y5_29 - y5_38 - y17_40 - y17_49 - y9_45 - y27_62 - y8_58 - y2_5 - y20_50 - y62_65 - y2_23 - y20_59 - y23_55 - y23_64 - y24_29 - y51_55 - y1_36 - y13_38 - y24_38 - y1_45 - y13_47 - y24_47 - y16_43 - y35_47 - y1_54 - y13_56 - y35_56 - y16_52 - y5_15 - y1_63 - y5_24 - y46_62 - y36_39 - y57_62 - y5_42 - y6_7 - y28_44 - y42_46 - y27_57 - y50_59 - y19_53 - y42_55 - y30_62 - y20_27 - y20_36 - y31_36 - y2_9 - y20_45 - y23_41 - y31_54 - y4_37 - y23_50 - y20_63 - y12_59 - y1_31 - y24_33 - y16_29 - y45_65 - y13_42 - y24_42 - y35_42 - y16_47 - y17_21 - y49_53 - y28_30 - y9_26 - y49_62 - y50_63 - y11_44 - y61_63 - y42_59 - y20_22 - y0_62 - y12_27 - y2_4 - y12_54 - y1_17 - y53_55 - y23_63 - y1_26 - y13_28 - y4_59 - y56_60 - y24_37 - y37_65 - y16_42 - y7_60 - y27_38 - y8_43 - y30_43 - y0_39 - y8_52 - y20_26 - y0_57 - y12_22 - y31_35 - y20_44 - y4_27 - y23_40 - y4_45 - y34_46 - y34_55 - y45_55 - y56_64 - y37_60 - y5_9 - y38_43 - y49_52 - y46_65 - y18_46 - y15_59 - y38_61 - y18_55 - y8_20 - y18_64 - y8_29 - y8_38 - y19_38 - y30_38 - y8_47 - y11_43 - y20_21 - y0_52 - y11_52 - y41_53 - y11_61 - y23_26 - y4_22 - y33_58 - y1_7 - y34_41 - y22_48 - y16_23 - y22_57 - y34_59 - y14_62 - y26_36 - y18_41 - y18_50 - y0_11 - y48_60 - y19_33 - y0_29 - y29_65 - y41_48 - y4_8 - y52_57 - y23_30 - y25_49 - y4_26 - y44_62 - y4_35 - y34_36 - y37_41 - y34_54 - y45_54 - y56_63 - y3_57 - y7_18 - y59_65 - y37_49 - y26_40 - y7_54 - y11_15 - y18_63 - y19_28 - y48_64 - y8_37 - y11_33 - y21_65 - y0_42 - y41_43 - y52_61 - y4_21 - y22_29 - y22_38 - y22_47 - y45_49 - y3_43 - y45_58 - y56_58 - y14_61 - y26_44 - y7_40 - y0_1 - y7_49 - y48_50 - y11_19 - y6_62 - y29_64 - y40_64 - y52_56 - y44_52 - y41_65 - y2_46 - y10_59 - y2_55 - y14_29 - y34_44 - y3_38 - y14_47 - y3_56
 Subject to
C1: x0+x1-y0_1 <=1 
C2: x0+x2-y0_2 <=1 
C3: x0+x5-y0_5 <=1 
C4: x0+x9-y0_9 <=1 
C5: x0+x11-y0_11 <=1 
C6: x0+x13 <=1 
C7: x0+x14 <=1 
C8: x0+x15 <=1 
C9: x0+x22-y0_22 <=1 
C10: x0+x26-y0_26 <=1 
C11: x0+x29-y0_29 <=1 
C12: x0+x31-y0_31 <=1 
C13: x0+x37 <=1 
C14: x0+x38 <=1 
C15: x0+x39-y0_39 <=1 
C16: x0+x40 <=1 
C17: x0+x41 <=1 
C18: x0+x42-y0_42 <=1 
C19: x0+x43 <=1 
C20: x0+x46 <=1 
C21: x0+x48 <=1 
C22: x0+x49 <=1 
C23: x0+x50 <=1 
C24: x0+x51 <=1 
C25: x0+x52-y0_52 <=1 
C26: x0+x53 <=1 
C27: x0+x54 <=1 
C28: x0+x55-y0_55 <=1 
C29: x0+x56 <=1 
C30: x0+x57-y0_57 <=1 
C31: x0+x59-y0_59 <=1 
C32: x0+x61 <=1 
C33: x0+x62-y0_62 <=1 
C34: x0+x65 <=1 
C35: x1+x7-y1_7 <=1 
C36: x1+x9 <=1 
C37: x1+x10-y1_10 <=1 
C38: x1+x15 <=1 
C39: x1+x17-y1_17 <=1 
C40: x1+x19 <=1 
C41: x1+x20 <=1 
C42: x1+x21 <=1 
C43: x1+x24 <=1 
C44: x1+x26-y1_26 <=1 
C45: x1+x28-y1_28 <=1 
C46: x1+x31-y1_31 <=1 
C47: x1+x36-y1_36 <=1 
C48: x1+x37 <=1 
C49: x1+x39 <=1 
C50: x1+x42 <=1 
C51: x1+x43-y1_43 <=1 
C52: x1+x45-y1_45 <=1 
C53: x1+x47 <=1 
C54: x1+x49 <=1 
C55: x1+x50 <=1 
C56: x1+x52 <=1 
C57: x1+x54-y1_54 <=1 
C58: x1+x55-y1_55 <=1 
C59: x1+x56 <=1 
C60: x1+x57 <=1 
C61: x1+x61 <=1 
C62: x1+x63-y1_63 <=1 
C63: x1+x64-y1_64 <=1 
C64: x1+x65 <=1 
C65: x2+x4-y2_4 <=1 
C66: x2+x5-y2_5 <=1 
C67: x2+x8-y2_8 <=1 
C68: x2+x9-y2_9 <=1 
C69: x2+x12 <=1 
C70: x2+x15 <=1 
C71: x2+x16-y2_16 <=1 
C72: x2+x17 <=1 
C73: x2+x19-y2_19 <=1 
C74: x2+x20-y2_20 <=1 
C75: x2+x22-y2_22 <=1 
C76: x2+x23-y2_23 <=1 
C77: x2+x26 <=1 
C78: x2+x29-y2_29 <=1 
C79: x2+x36-y2_36 <=1 
C80: x2+x38-y2_38 <=1 
C81: x2+x39 <=1 
C82: x2+x40-y2_40 <=1 
C83: x2+x43 <=1 
C84: x2+x44 <=1 
C85: x2+x46-y2_46 <=1 
C86: x2+x49-y2_49 <=1 
C87: x2+x50 <=1 
C88: x2+x51 <=1 
C89: x2+x53 <=1 
C90: x2+x54-y2_54 <=1 
C91: x2+x55-y2_55 <=1 
C92: x2+x56-y2_56 <=1 
C93: x2+x57-y2_57 <=1 
C94: x2+x60 <=1 
C95: x2+x62 <=1 
C96: x2+x63-y2_63 <=1 
C97: x3+x6 <=1 
C98: x3+x7 <=1 
C99: x3+x8-y3_8 <=1 
C100: x3+x9-y3_9 <=1 
C101: x3+x11 <=1 
C102: x3+x12-y3_12 <=1 
C103: x3+x15-y3_15 <=1 
C104: x3+x17 <=1 
C105: x3+x18-y3_18 <=1 
C106: x3+x20 <=1 
C107: x3+x24 <=1 
C108: x3+x26-y3_26 <=1 
C109: x3+x27-y3_27 <=1 
C110: x3+x29 <=1 
C111: x3+x31 <=1 
C112: x3+x33 <=1 
C113: x3+x34 <=1 
C114: x3+x35 <=1 
C115: x3+x37-y3_37 <=1 
C116: x3+x38-y3_38 <=1 
C117: x3+x39 <=1 
C118: x3+x41 <=1 
C119: x3+x42-y3_42 <=1 
C120: x3+x43-y3_43 <=1 
C121: x3+x44-y3_44 <=1 
C122: x3+x45-y3_45 <=1 
C123: x3+x47 <=1 
C124: x3+x51-y3_51 <=1 
C125: x3+x53 <=1 
C126: x3+x55-y3_55 <=1 
C127: x3+x56-y3_56 <=1 
C128: x3+x57-y3_57 <=1 
C129: x3+x58 <=1 
C130: x3+x59 <=1 
C131: x3+x60-y3_60 <=1 
C132: x3+x61 <=1 
C133: x3+x63 <=1 
C134: x3+x64 <=1 
C135: x3+x65 <=1 
C136: x4+x5 <=1 
C137: x4+x6 <=1 
C138: x4+x8-y4_8 <=1 
C139: x4+x13 <=1 
C140: x4+x20 <=1 
C141: x4+x21-y4_21 <=1 
C142: x4+x22-y4_22 <=1 
C143: x4+x24 <=1 
C144: x4+x25-y4_25 <=1 
C145: x4+x26-y4_26 <=1 
C146: x4+x27-y4_27 <=1 
C147: x4+x28 <=1 
C148: x4+x29-y4_29 <=1 
C149: x4+x30-y4_30 <=1 
C150: x4+x31 <=1 
C151: x4+x32 <=1 
C152: x4+x33-y4_33 <=1 
C153: x4+x34 <=1 
C154: x4+x35-y4_35 <=1 
C155: x4+x36 <=1 
C156: x4+x37-y4_37 <=1 
C157: x4+x41 <=1 
C158: x4+x43 <=1 
C159: x4+x45-y4_45 <=1 
C160: x4+x46 <=1 
C161: x4+x48-y4_48 <=1 
C162: x4+x49 <=1 
C163: x4+x53-y4_53 <=1 
C164: x4+x54 <=1 
C165: x4+x55 <=1 
C166: x4+x56-y4_56 <=1 
C167: x4+x57 <=1 
C168: x4+x59-y4_59 <=1 
C169: x4+x60 <=1 
C170: x4+x61-y4_61 <=1 
C171: x4+x62 <=1 
C172: x4+x63 <=1 
C173: x4+x64 <=1 
C174: x5+x8-y5_8 <=1 
C175: x5+x9-y5_9 <=1 
C176: x5+x10 <=1 
C177: x5+x12 <=1 
C178: x5+x15-y5_15 <=1 
C179: x5+x17-y5_17 <=1 
C180: x5+x18 <=1 
C181: x5+x20 <=1 
C182: x5+x21 <=1 
C183: x5+x24-y5_24 <=1 
C184: x5+x25-y5_25 <=1 
C185: x5+x27-y5_27 <=1 
C186: x5+x29-y5_29 <=1 
C187: x5+x35-y5_35 <=1 
C188: x5+x36 <=1 
C189: x5+x37 <=1 
C190: x5+x38-y5_38 <=1 
C191: x5+x42-y5_42 <=1 
C192: x5+x43-y5_43 <=1 
C193: x5+x44-y5_44 <=1 
C194: x5+x47 <=1 
C195: x5+x48 <=1 
C196: x5+x49 <=1 
C197: x5+x50-y5_50 <=1 
C198: x5+x51 <=1 
C199: x5+x52-y5_52 <=1 
C200: x5+x53 <=1 
C201: x5+x56 <=1 
C202: x5+x59-y5_59 <=1 
C203: x5+x60-y5_60 <=1 
C204: x5+x61-y5_61 <=1 
C205: x5+x62-y5_62 <=1 
C206: x5+x63-y5_63 <=1 
C207: x5+x64-y5_64 <=1 
C208: x6+x7-y6_7 <=1 
C209: x6+x8-y6_8 <=1 
C210: x6+x11 <=1 
C211: x6+x13-y6_13 <=1 
C212: x6+x16 <=1 
C213: x6+x17-y6_17 <=1 
C214: x6+x18-y6_18 <=1 
C215: x6+x21 <=1 
C216: x6+x22 <=1 
C217: x6+x26 <=1 
C218: x6+x27 <=1 
C219: x6+x28 <=1 
C220: x6+x30 <=1 
C221: x6+x31-y6_31 <=1 
C222: x6+x32 <=1 
C223: x6+x33-y6_33 <=1 
C224: x6+x39 <=1 
C225: x6+x40-y6_40 <=1 
C226: x6+x41-y6_41 <=1 
C227: x6+x42 <=1 
C228: x6+x45-y6_45 <=1 
C229: x6+x47 <=1 
C230: x6+x48-y6_48 <=1 
C231: x6+x50-y6_50 <=1 
C232: x6+x53 <=1 
C233: x6+x54 <=1 
C234: x6+x55-y6_55 <=1 
C235: x6+x56 <=1 
C236: x6+x57 <=1 
C237: x6+x59-y6_59 <=1 
C238: x6+x62-y6_62 <=1 
C239: x7+x8 <=1 
C240: x7+x10 <=1 
C241: x7+x11 <=1 
C242: x7+x12 <=1 
C243: x7+x14 <=1 
C244: x7+x17 <=1 
C245: x7+x18-y7_18 <=1 
C246: x7+x20-y7_20 <=1 
C247: x7+x21 <=1 
C248: x7+x22 <=1 
C249: x7+x24 <=1 
C250: x7+x26-y7_26 <=1 
C251: x7+x27 <=1 
C252: x7+x30 <=1 
C253: x7+x31 <=1 
C254: x7+x32 <=1 
C255: x7+x33-y7_33 <=1 
C256: x7+x34-y7_34 <=1 
C257: x7+x35 <=1 
C258: x7+x37-y7_37 <=1 
C259: x7+x38-y7_38 <=1 
C260: x7+x39-y7_39 <=1 
C261: x7+x40-y7_40 <=1 
C262: x7+x41 <=1 
C263: x7+x44 <=1 
C264: x7+x46 <=1 
C265: x7+x47-y7_47 <=1 
C266: x7+x48-y7_48 <=1 
C267: x7+x49-y7_49 <=1 
C268: x7+x52-y7_52 <=1 
C269: x7+x54-y7_54 <=1 
C270: x7+x55 <=1 
C271: x7+x57 <=1 
C272: x7+x58 <=1 
C273: x7+x60-y7_60 <=1 
C274: x7+x61-y7_61 <=1 
C275: x7+x63 <=1 
C276: x8+x9 <=1 
C277: x8+x11 <=1 
C278: x8+x12 <=1 
C279: x8+x15 <=1 
C280: x8+x17 <=1 
C281: x8+x18-y8_18 <=1 
C282: x8+x20-y8_20 <=1 
C283: x8+x21-y8_21 <=1 
C284: x8+x22-y8_22 <=1 
C285: x8+x24 <=1 
C286: x8+x28 <=1 
C287: x8+x29-y8_29 <=1 
C288: x8+x31 <=1 
C289: x8+x34 <=1 
C290: x8+x35-y8_35 <=1 
C291: x8+x36 <=1 
C292: x8+x37-y8_37 <=1 
C293: x8+x38-y8_38 <=1 
C294: x8+x40 <=1 
C295: x8+x41 <=1 
C296: x8+x42 <=1 
C297: x8+x43-y8_43 <=1 
C298: x8+x46 <=1 
C299: x8+x47-y8_47 <=1 
C300: x8+x48 <=1 
C301: x8+x49 <=1 
C302: x8+x51 <=1 
C303: x8+x52-y8_52 <=1 
C304: x8+x54-y8_54 <=1 
C305: x8+x55 <=1 
C306: x8+x56 <=1 
C307: x8+x57 <=1 
C308: x8+x58-y8_58 <=1 
C309: x8+x59 <=1 
C310: x8+x61 <=1 
C311: x8+x65 <=1 
C312: x9+x10 <=1 
C313: x9+x13 <=1 
C314: x9+x14-y9_14 <=1 
C315: x9+x19 <=1 
C316: x9+x21 <=1 
C317: x9+x23-y9_23 <=1 
C318: x9+x24-y9_24 <=1 
C319: x9+x25 <=1 
C320: x9+x26-y9_26 <=1 
C321: x9+x28-y9_28 <=1 
C322: x9+x33-y9_33 <=1 
C323: x9+x36 <=1 
C324: x9+x37 <=1 
C325: x9+x38 <=1 
C326: x9+x39-y9_39 <=1 
C327: x9+x40 <=1 
C328: x9+x42 <=1 
C329: x9+x43-y9_43 <=1 
C330: x9+x44-y9_44 <=1 
C331: x9+x45-y9_45 <=1 
C332: x9+x48-y9_48 <=1 
C333: x9+x50 <=1 
C334: x9+x52 <=1 
C335: x9+x56 <=1 
C336: x9+x59-y9_59 <=1 
C337: x9+x60-y9_60 <=1 
C338: x9+x61 <=1 
C339: x9+x63-y9_63 <=1 
C340: x9+x65 <=1 
C341: x10+x11-y10_11 <=1 
C342: x10+x13 <=1 
C343: x10+x14-y10_14 <=1 
C344: x10+x15 <=1 
C345: x10+x17-y10_17 <=1 
C346: x10+x18 <=1 
C347: x10+x19 <=1 
C348: x10+x20 <=1 
C349: x10+x21 <=1 
C350: x10+x23 <=1 
C351: x10+x24 <=1 
C352: x10+x26-y10_26 <=1 
C353: x10+x27 <=1 
C354: x10+x28-y10_28 <=1 
C355: x10+x30-y10_30 <=1 
C356: x10+x31 <=1 
C357: x10+x32 <=1 
C358: x10+x33-y10_33 <=1 
C359: x10+x34 <=1 
C360: x10+x35-y10_35 <=1 
C361: x10+x36-y10_36 <=1 
C362: x10+x40 <=1 
C363: x10+x42-y10_42 <=1 
C364: x10+x45-y10_45 <=1 
C365: x10+x46 <=1 
C366: x10+x47 <=1 
C367: x10+x49-y10_49 <=1 
C368: x10+x50 <=1 
C369: x10+x51-y10_51 <=1 
C370: x10+x52 <=1 
C371: x10+x53-y10_53 <=1 
C372: x10+x54-y10_54 <=1 
C373: x10+x58 <=1 
C374: x10+x59-y10_59 <=1 
C375: x10+x60 <=1 
C376: x10+x62 <=1 
C377: x10+x63 <=1 
C378: x11+x12 <=1 
C379: x11+x13 <=1 
C380: x11+x14 <=1 
C381: x11+x15-y11_15 <=1 
C382: x11+x16-y11_16 <=1 
C383: x11+x17-y11_17 <=1 
C384: x11+x18-y11_18 <=1 
C385: x11+x19-y11_19 <=1 
C386: x11+x21-y11_21 <=1 
C387: x11+x22 <=1 
C388: x11+x23 <=1 
C389: x11+x24 <=1 
C390: x11+x26-y11_26 <=1 
C391: x11+x27 <=1 
C392: x11+x33-y11_33 <=1 
C393: x11+x36 <=1 
C394: x11+x37-y11_37 <=1 
C395: x11+x38 <=1 
C396: x11+x39 <=1 
C397: x11+x40 <=1 
C398: x11+x42 <=1 
C399: x11+x43-y11_43 <=1 
C400: x11+x44-y11_44 <=1 
C401: x11+x45 <=1 
C402: x11+x46-y11_46 <=1 
C403: x11+x49-y11_49 <=1 
C404: x11+x51 <=1 
C405: x11+x52-y11_52 <=1 
C406: x11+x54-y11_54 <=1 
C407: x11+x57 <=1 
C408: x11+x58 <=1 
C409: x11+x59-y11_59 <=1 
C410: x11+x60 <=1 
C411: x11+x61-y11_61 <=1 
C412: x11+x62 <=1 
C413: x11+x65 <=1 
C414: x12+x14 <=1 
C415: x12+x16 <=1 
C416: x12+x18 <=1 
C417: x12+x22-y12_22 <=1 
C418: x12+x23-y12_23 <=1 
C419: x12+x26 <=1 
C420: x12+x27-y12_27 <=1 
C421: x12+x28 <=1 
C422: x12+x29-y12_29 <=1 
C423: x12+x30 <=1 
C424: x12+x31 <=1 
C425: x12+x33-y12_33 <=1 
C426: x12+x34-y12_34 <=1 
C427: x12+x36 <=1 
C428: x12+x37 <=1 
C429: x12+x38 <=1 
C430: x12+x39-y12_39 <=1 
C431: x12+x42-y12_42 <=1 
C432: x12+x44-y12_44 <=1 
C433: x12+x46 <=1 
C434: x12+x48 <=1 
C435: x12+x50 <=1 
C436: x12+x51-y12_51 <=1 
C437: x12+x52-y12_52 <=1 
C438: x12+x54-y12_54 <=1 
C439: x12+x56-y12_56 <=1 
C440: x12+x57-y12_57 <=1 
C441: x12+x58-y12_58 <=1 
C442: x12+x59-y12_59 <=1 
C443: x12+x60-y12_60 <=1 
C444: x12+x61-y12_61 <=1 
C445: x12+x63-y12_63 <=1 
C446: x13+x14 <=1 
C447: x13+x15 <=1 
C448: x13+x18 <=1 
C449: x13+x19 <=1 
C450: x13+x21 <=1 
C451: x13+x23 <=1 
C452: x13+x26 <=1 
C453: x13+x27 <=1 
C454: x13+x28-y13_28 <=1 
C455: x13+x30-y13_30 <=1 
C456: x13+x31-y13_31 <=1 
C457: x13+x33 <=1 
C458: x13+x34-y13_34 <=1 
C459: x13+x38-y13_38 <=1 
C460: x13+x40-y13_40 <=1 
C461: x13+x41 <=1 
C462: x13+x42-y13_42 <=1 
C463: x13+x44-y13_44 <=1 
C464: x13+x46 <=1 
C465: x13+x47-y13_47 <=1 
C466: x13+x48 <=1 
C467: x13+x49-y13_49 <=1 
C468: x13+x50-y13_50 <=1 
C469: x13+x51-y13_51 <=1 
C470: x13+x52 <=1 
C471: x13+x53 <=1 
C472: x13+x56-y13_56 <=1 
C473: x13+x57-y13_57 <=1 
C474: x13+x58-y13_58 <=1 
C475: x13+x59-y13_59 <=1 
C476: x13+x60 <=1 
C477: x13+x61-y13_61 <=1 
C478: x13+x64 <=1 
C479: x13+x65 <=1 
C480: x14+x16 <=1 
C481: x14+x17-y14_17 <=1 
C482: x14+x18 <=1 
C483: x14+x19-y14_19 <=1 
C484: x14+x23-y14_23 <=1 
C485: x14+x25-y14_25 <=1 
C486: x14+x26-y14_26 <=1 
C487: x14+x27-y14_27 <=1 
C488: x14+x29-y14_29 <=1 
C489: x14+x30-y14_30 <=1 
C490: x14+x31-y14_31 <=1 
C491: x14+x33 <=1 
C492: x14+x34 <=1 
C493: x14+x35-y14_35 <=1 
C494: x14+x36-y14_36 <=1 
C495: x14+x39 <=1 
C496: x14+x41 <=1 
C497: x14+x42-y14_42 <=1 
C498: x14+x44-y14_44 <=1 
C499: x14+x46 <=1 
C500: x14+x47-y14_47 <=1 
C501: x14+x50-y14_50 <=1 
C502: x14+x51-y14_51 <=1 
C503: x14+x52 <=1 
C504: x14+x56 <=1 
C505: x14+x58 <=1 
C506: x14+x59 <=1 
C507: x14+x60-y14_60 <=1 
C508: x14+x61-y14_61 <=1 
C509: x14+x62-y14_62 <=1 
C510: x15+x18 <=1 
C511: x15+x19 <=1 
C512: x15+x20 <=1 
C513: x15+x22 <=1 
C514: x15+x23 <=1 
C515: x15+x25 <=1 
C516: x15+x26 <=1 
C517: x15+x29 <=1 
C518: x15+x30 <=1 
C519: x15+x31 <=1 
C520: x15+x32 <=1 
C521: x15+x33-y15_33 <=1 
C522: x15+x34-y15_34 <=1 
C523: x15+x35 <=1 
C524: x15+x36 <=1 
C525: x15+x38-y15_38 <=1 
C526: x15+x40 <=1 
C527: x15+x42 <=1 
C528: x15+x43 <=1 
C529: x15+x47-y15_47 <=1 
C530: x15+x52 <=1 
C531: x15+x53-y15_53 <=1 
C532: x15+x57 <=1 
C533: x15+x58 <=1 
C534: x15+x59-y15_59 <=1 
C535: x15+x60 <=1 
C536: x15+x62-y15_62 <=1 
C537: x15+x63 <=1 
C538: x15+x65 <=1 
C539: x16+x19 <=1 
C540: x16+x20 <=1 
C541: x16+x23-y16_23 <=1 
C542: x16+x27 <=1 
C543: x16+x29-y16_29 <=1 
C544: x16+x31-y16_31 <=1 
C545: x16+x32 <=1 
C546: x16+x33 <=1 
C547: x16+x36-y16_36 <=1 
C548: x16+x37-y16_37 <=1 
C549: x16+x38 <=1 
C550: x16+x39-y16_39 <=1 
C551: x16+x40-y16_40 <=1 
C552: x16+x42-y16_42 <=1 
C553: x16+x43-y16_43 <=1 
C554: x16+x44-y16_44 <=1 
C555: x16+x45-y16_45 <=1 
C556: x16+x47-y16_47 <=1 
C557: x16+x49-y16_49 <=1 
C558: x16+x50 <=1 
C559: x16+x52-y16_52 <=1 
C560: x16+x55 <=1 
C561: x16+x57-y16_57 <=1 
C562: x16+x58 <=1 
C563: x16+x59-y16_59 <=1 
C564: x16+x62 <=1 
C565: x16+x65 <=1 
C566: x17+x18-y17_18 <=1 
C567: x17+x19 <=1 
C568: x17+x21-y17_21 <=1 
C569: x17+x23-y17_23 <=1 
C570: x17+x24 <=1 
C571: x17+x25-y17_25 <=1 
C572: x17+x28 <=1 
C573: x17+x29 <=1 
C574: x17+x30 <=1 
C575: x17+x34 <=1 
C576: x17+x35 <=1 
C577: x17+x36 <=1 
C578: x17+x39 <=1 
C579: x17+x40-y17_40 <=1 
C580: x17+x42 <=1 
C581: x17+x44-y17_44 <=1 
C582: x17+x45 <=1 
C583: x17+x46-y17_46 <=1 
C584: x17+x48-y17_48 <=1 
C585: x17+x49-y17_49 <=1 
C586: x17+x50 <=1 
C587: x17+x53 <=1 
C588: x17+x54 <=1 
C589: x17+x55-y17_55 <=1 
C590: x17+x56 <=1 
C591: x17+x60-y17_60 <=1 
C592: x17+x61 <=1 
C593: x17+x63 <=1 
C594: x17+x64-y17_64 <=1 
C595: x17+x65-y17_65 <=1 
C596: x18+x19-y18_19 <=1 
C597: x18+x20-y18_20 <=1 
C598: x18+x23 <=1 
C599: x18+x24 <=1 
C600: x18+x26 <=1 
C601: x18+x28-y18_28 <=1 
C602: x18+x32 <=1 
C603: x18+x33-y18_33 <=1 
C604: x18+x34-y18_34 <=1 
C605: x18+x35-y18_35 <=1 
C606: x18+x37 <=1 
C607: x18+x41-y18_41 <=1 
C608: x18+x42 <=1 
C609: x18+x46-y18_46 <=1 
C610: x18+x48-y18_48 <=1 
C611: x18+x49 <=1 
C612: x18+x50-y18_50 <=1 
C613: x18+x53-y18_53 <=1 
C614: x18+x54 <=1 
C615: x18+x55-y18_55 <=1 
C616: x18+x56 <=1 
C617: x18+x57-y18_57 <=1 
C618: x18+x58 <=1 
C619: x18+x59 <=1 
C620: x18+x61 <=1 
C621: x18+x62-y18_62 <=1 
C622: x18+x63-y18_63 <=1 
C623: x18+x64-y18_64 <=1 
C624: x18+x65 <=1 
C625: x19+x20 <=1 
C626: x19+x25-y19_25 <=1 
C627: x19+x27 <=1 
C628: x19+x28-y19_28 <=1 
C629: x19+x32-y19_32 <=1 
C630: x19+x33-y19_33 <=1 
C631: x19+x36 <=1 
C632: x19+x38-y19_38 <=1 
C633: x19+x40 <=1 
C634: x19+x42 <=1 
C635: x19+x43 <=1 
C636: x19+x44-y19_44 <=1 
C637: x19+x45 <=1 
C638: x19+x46 <=1 
C639: x19+x48 <=1 
C640: x19+x52 <=1 
C641: x19+x53-y19_53 <=1 
C642: x19+x55-y19_55 <=1 
C643: x19+x56 <=1 
C644: x19+x57 <=1 
C645: x19+x58 <=1 
C646: x19+x59 <=1 
C647: x19+x60 <=1 
C648: x20+x21-y20_21 <=1 
C649: x20+x22-y20_22 <=1 
C650: x20+x26-y20_26 <=1 
C651: x20+x27-y20_27 <=1 
C652: x20+x29 <=1 
C653: x20+x30 <=1 
C654: x20+x31 <=1 
C655: x20+x32 <=1 
C656: x20+x34-y20_34 <=1 
C657: x20+x36-y20_36 <=1 
C658: x20+x37 <=1 
C659: x20+x38 <=1 
C660: x20+x41 <=1 
C661: x20+x42-y20_42 <=1 
C662: x20+x43 <=1 
C663: x20+x44-y20_44 <=1 
C664: x20+x45-y20_45 <=1 
C665: x20+x47-y20_47 <=1 
C666: x20+x49 <=1 
C667: x20+x50-y20_50 <=1 
C668: x20+x51-y20_51 <=1 
C669: x20+x52 <=1 
C670: x20+x53 <=1 
C671: x20+x59-y20_59 <=1 
C672: x20+x60-y20_60 <=1 
C673: x20+x61-y20_61 <=1 
C674: x20+x63-y20_63 <=1 
C675: x21+x22-y21_22 <=1 
C676: x21+x24-y21_24 <=1 
C677: x21+x25-y21_25 <=1 
C678: x21+x27-y21_27 <=1 
C679: x21+x31 <=1 
C680: x21+x33 <=1 
C681: x21+x34 <=1 
C682: x21+x36 <=1 
C683: x21+x38-y21_38 <=1 
C684: x21+x39-y21_39 <=1 
C685: x21+x40-y21_40 <=1 
C686: x21+x43 <=1 
C687: x21+x44-y21_44 <=1 
C688: x21+x45-y21_45 <=1 
C689: x21+x46-y21_46 <=1 
C690: x21+x47-y21_47 <=1 
C691: x21+x49-y21_49 <=1 
C692: x21+x52 <=1 
C693: x21+x53-y21_53 <=1 
C694: x21+x57-y21_57 <=1 
C695: x21+x58-y21_58 <=1 
C696: x21+x59-y21_59 <=1 
C697: x21+x61-y21_61 <=1 
C698: x21+x62-y21_62 <=1 
C699: x21+x63-y21_63 <=1 
C700: x21+x65-y21_65 <=1 
C701: x22+x23 <=1 
C702: x22+x24 <=1 
C703: x22+x25 <=1 
C704: x22+x26 <=1 
C705: x22+x29-y22_29 <=1 
C706: x22+x30 <=1 
C707: x22+x31 <=1 
C708: x22+x32 <=1 
C709: x22+x33 <=1 
C710: x22+x38-y22_38 <=1 
C711: x22+x39-y22_39 <=1 
C712: x22+x40 <=1 
C713: x22+x41-y22_41 <=1 
C714: x22+x43 <=1 
C715: x22+x44 <=1 
C716: x22+x46-y22_46 <=1 
C717: x22+x47-y22_47 <=1 
C718: x22+x48-y22_48 <=1 
C719: x22+x50-y22_50 <=1 
C720: x22+x53-y22_53 <=1 
C721: x22+x54 <=1 
C722: x22+x55 <=1 
C723: x22+x56 <=1 
C724: x22+x57-y22_57 <=1 
C725: x22+x59 <=1 
C726: x22+x60 <=1 
C727: x22+x61 <=1 
C728: x22+x63-y22_63 <=1 
C729: x22+x64 <=1 
C730: x23+x24-y23_24 <=1 
C731: x23+x26-y23_26 <=1 
C732: x23+x28-y23_28 <=1 
C733: x23+x30-y23_30 <=1 
C734: x23+x33 <=1 
C735: x23+x34-y23_34 <=1 
C736: x23+x37-y23_37 <=1 
C737: x23+x38-y23_38 <=1 
C738: x23+x39-y23_39 <=1 
C739: x23+x40-y23_40 <=1 
C740: x23+x41-y23_41 <=1 
C741: x23+x42-y23_42 <=1 
C742: x23+x43 <=1 
C743: x23+x48 <=1 
C744: x23+x50-y23_50 <=1 
C745: x23+x51-y23_51 <=1 
C746: x23+x53-y23_53 <=1 
C747: x23+x54 <=1 
C748: x23+x55-y23_55 <=1 
C749: x23+x56-y23_56 <=1 
C750: x23+x57-y23_57 <=1 
C751: x23+x61-y23_61 <=1 
C752: x23+x62-y23_62 <=1 
C753: x23+x63-y23_63 <=1 
C754: x23+x64-y23_64 <=1 
C755: x23+x65-y23_65 <=1 
C756: x24+x25-y24_25 <=1 
C757: x24+x28 <=1 
C758: x24+x29-y24_29 <=1 
C759: x24+x30-y24_30 <=1 
C760: x24+x31 <=1 
C761: x24+x33-y24_33 <=1 
C762: x24+x34 <=1 
C763: x24+x35-y24_35 <=1 
C764: x24+x36-y24_36 <=1 
C765: x24+x37-y24_37 <=1 
C766: x24+x38-y24_38 <=1 
C767: x24+x40 <=1 
C768: x24+x41 <=1 
C769: x24+x42-y24_42 <=1 
C770: x24+x43 <=1 
C771: x24+x44-y24_44 <=1 
C772: x24+x45-y24_45 <=1 
C773: x24+x46-y24_46 <=1 
C774: x24+x47-y24_47 <=1 
C775: x24+x49 <=1 
C776: x24+x50-y24_50 <=1 
C777: x24+x52-y24_52 <=1 
C778: x24+x54 <=1 
C779: x24+x55-y24_55 <=1 
C780: x24+x56 <=1 
C781: x24+x59-y24_59 <=1 
C782: x24+x60 <=1 
C783: x24+x61 <=1 
C784: x25+x26-y25_26 <=1 
C785: x25+x27-y25_27 <=1 
C786: x25+x30 <=1 
C787: x25+x32 <=1 
C788: x25+x33 <=1 
C789: x25+x34 <=1 
C790: x25+x37 <=1 
C791: x25+x38-y25_38 <=1 
C792: x25+x40 <=1 
C793: x25+x42-y25_42 <=1 
C794: x25+x45 <=1 
C795: x25+x46-y25_46 <=1 
C796: x25+x49-y25_49 <=1 
C797: x25+x50-y25_50 <=1 
C798: x25+x52 <=1 
C799: x25+x54 <=1 
C800: x25+x55-y25_55 <=1 
C801: x25+x56 <=1 
C802: x25+x57 <=1 
C803: x25+x59 <=1 
C804: x25+x61 <=1 
C805: x25+x65 <=1 
C806: x26+x27 <=1 
C807: x26+x28 <=1 
C808: x26+x29 <=1 
C809: x26+x31 <=1 
C810: x26+x32 <=1 
C811: x26+x34-y26_34 <=1 
C812: x26+x36-y26_36 <=1 
C813: x26+x39-y26_39 <=1 
C814: x26+x40-y26_40 <=1 
C815: x26+x41 <=1 
C816: x26+x42-y26_42 <=1 
C817: x26+x44-y26_44 <=1 
C818: x26+x46-y26_46 <=1 
C819: x26+x47 <=1 
C820: x26+x48 <=1 
C821: x26+x53 <=1 
C822: x26+x54 <=1 
C823: x26+x56 <=1 
C824: x26+x58 <=1 
C825: x26+x60 <=1 
C826: x26+x61-y26_61 <=1 
C827: x26+x63 <=1 
C828: x27+x33 <=1 
C829: x27+x35-y27_35 <=1 
C830: x27+x36 <=1 
C831: x27+x37 <=1 
C832: x27+x38-y27_38 <=1 
C833: x27+x39 <=1 
C834: x27+x40-y27_40 <=1 
C835: x27+x41 <=1 
C836: x27+x43 <=1 
C837: x27+x44-y27_44 <=1 
C838: x27+x45 <=1 
C839: x27+x50-y27_50 <=1 
C840: x27+x51 <=1 
C841: x27+x53 <=1 
C842: x27+x54 <=1 
C843: x27+x57-y27_57 <=1 
C844: x27+x62-y27_62 <=1 
C845: x28+x30-y28_30 <=1 
C846: x28+x31 <=1 
C847: x28+x33 <=1 
C848: x28+x34-y28_34 <=1 
C849: x28+x35 <=1 
C850: x28+x37-y28_37 <=1 
C851: x28+x38 <=1 
C852: x28+x39-y28_39 <=1 
C853: x28+x41-y28_41 <=1 
C854: x28+x42-y28_42 <=1 
C855: x28+x43-y28_43 <=1 
C856: x28+x44-y28_44 <=1 
C857: x28+x46-y28_46 <=1 
C858: x28+x47-y28_47 <=1 
C859: x28+x48 <=1 
C860: x28+x51 <=1 
C861: x28+x52-y28_52 <=1 
C862: x28+x53 <=1 
C863: x28+x55 <=1 
C864: x28+x59-y28_59 <=1 
C865: x28+x60 <=1 
C866: x28+x61-y28_61 <=1 
C867: x28+x63-y28_63 <=1 
C868: x28+x64 <=1 
C869: x29+x32 <=1 
C870: x29+x34-y29_34 <=1 
C871: x29+x35-y29_35 <=1 
C872: x29+x39-y29_39 <=1 
C873: x29+x40-y29_40 <=1 
C874: x29+x41-y29_41 <=1 
C875: x29+x43-y29_43 <=1 
C876: x29+x46 <=1 
C877: x29+x47-y29_47 <=1 
C878: x29+x48 <=1 
C879: x29+x49 <=1 
C880: x29+x51 <=1 
C881: x29+x54-y29_54 <=1 
C882: x29+x55 <=1 
C883: x29+x56 <=1 
C884: x29+x58-y29_58 <=1 
C885: x29+x61-y29_61 <=1 
C886: x29+x64-y29_64 <=1 
C887: x29+x65-y29_65 <=1 
C888: x30+x33 <=1 
C889: x30+x36 <=1 
C890: x30+x38-y30_38 <=1 
C891: x30+x40-y30_40 <=1 
C892: x30+x41-y30_41 <=1 
C893: x30+x43-y30_43 <=1 
C894: x30+x44-y30_44 <=1 
C895: x30+x45 <=1 
C896: x30+x47 <=1 
C897: x30+x48 <=1 
C898: x30+x50-y30_50 <=1 
C899: x30+x54 <=1 
C900: x30+x55 <=1 
C901: x30+x56 <=1 
C902: x30+x58-y30_58 <=1 
C903: x30+x59 <=1 
C904: x30+x60-y30_60 <=1 
C905: x30+x61 <=1 
C906: x30+x62-y30_62 <=1 
C907: x30+x65 <=1 
C908: x31+x32-y31_32 <=1 
C909: x31+x35-y31_35 <=1 
C910: x31+x36-y31_36 <=1 
C911: x31+x37-y31_37 <=1 
C912: x31+x41 <=1 
C913: x31+x42 <=1 
C914: x31+x46 <=1 
C915: x31+x47 <=1 
C916: x31+x48-y31_48 <=1 
C917: x31+x51 <=1 
C918: x31+x54-y31_54 <=1 
C919: x31+x55-y31_55 <=1 
C920: x31+x58 <=1 
C921: x31+x60-y31_60 <=1 
C922: x31+x61-y31_61 <=1 
C923: x31+x65-y31_65 <=1 
C924: x32+x37 <=1 
C925: x32+x39-y32_39 <=1 
C926: x32+x40-y32_40 <=1 
C927: x32+x41 <=1 
C928: x32+x43 <=1 
C929: x32+x44 <=1 
C930: x32+x46 <=1 
C931: x32+x47-y32_47 <=1 
C932: x32+x52 <=1 
C933: x32+x53-y32_53 <=1 
C934: x32+x55 <=1 
C935: x32+x57 <=1 
C936: x32+x59 <=1 
C937: x32+x60 <=1 
C938: x32+x61 <=1 
C939: x32+x63 <=1 
C940: x32+x65 <=1 
C941: x33+x35 <=1 
C942: x33+x39 <=1 
C943: x33+x40-y33_40 <=1 
C944: x33+x41-y33_41 <=1 
C945: x33+x42-y33_42 <=1 
C946: x33+x44 <=1 
C947: x33+x48 <=1 
C948: x33+x49 <=1 
C949: x33+x55-y33_55 <=1 
C950: x33+x58-y33_58 <=1 
C951: x33+x59 <=1 
C952: x33+x60 <=1 
C953: x33+x61 <=1 
C954: x33+x62 <=1 
C955: x33+x65 <=1 
C956: x34+x35 <=1 
C957: x34+x36-y34_36 <=1 
C958: x34+x37 <=1 
C959: x34+x41-y34_41 <=1 
C960: x34+x42-y34_42 <=1 
C961: x34+x44-y34_44 <=1 
C962: x34+x46-y34_46 <=1 
C963: x34+x47 <=1 
C964: x34+x48-y34_48 <=1 
C965: x34+x49 <=1 
C966: x34+x50 <=1 
C967: x34+x54-y34_54 <=1 
C968: x34+x55-y34_55 <=1 
C969: x34+x56-y34_56 <=1 
C970: x34+x58-y34_58 <=1 
C971: x34+x59-y34_59 <=1 
C972: x34+x61 <=1 
C973: x35+x37 <=1 
C974: x35+x39-y35_39 <=1 
C975: x35+x40 <=1 
C976: x35+x41 <=1 
C977: x35+x42-y35_42 <=1 
C978: x35+x44-y35_44 <=1 
C979: x35+x46 <=1 
C980: x35+x47-y35_47 <=1 
C981: x35+x48 <=1 
C982: x35+x52 <=1 
C983: x35+x53 <=1 
C984: x35+x54 <=1 
C985: x35+x56-y35_56 <=1 
C986: x35+x57 <=1 
C987: x35+x58 <=1 
C988: x35+x60-y35_60 <=1 
C989: x35+x61 <=1 
C990: x36+x39-y36_39 <=1 
C991: x36+x46 <=1 
C992: x36+x48-y36_48 <=1 
C993: x36+x50-y36_50 <=1 
C994: x36+x51-y36_51 <=1 
C995: x36+x52 <=1 
C996: x36+x54-y36_54 <=1 
C997: x36+x55 <=1 
C998: x36+x56 <=1 
C999: x36+x59 <=1 
C1000: x36+x61-y36_61 <=1 
C1001: x36+x63 <=1 
C1002: x37+x39 <=1 
C1003: x37+x41-y37_41 <=1 
C1004: x37+x47-y37_47 <=1 
C1005: x37+x49-y37_49 <=1 
C1006: x37+x50 <=1 
C1007: x37+x51 <=1 
C1008: x37+x54 <=1 
C1009: x37+x56-y37_56 <=1 
C1010: x37+x57 <=1 
C1011: x37+x58-y37_58 <=1 
C1012: x37+x59 <=1 
C1013: x37+x60-y37_60 <=1 
C1014: x37+x61-y37_61 <=1 
C1015: x37+x63 <=1 
C1016: x37+x65-y37_65 <=1 
C1017: x38+x39 <=1 
C1018: x38+x40-y38_40 <=1 
C1019: x38+x42 <=1 
C1020: x38+x43-y38_43 <=1 
C1021: x38+x50-y38_50 <=1 
C1022: x38+x52 <=1 
C1023: x38+x53 <=1 
C1024: x38+x54 <=1 
C1025: x38+x56 <=1 
C1026: x38+x58 <=1 
C1027: x38+x59-y38_59 <=1 
C1028: x38+x60-y38_60 <=1 
C1029: x38+x61-y38_61 <=1 
C1030: x38+x63 <=1 
C1031: x38+x65 <=1 
C1032: x39+x40 <=1 
C1033: x39+x41 <=1 
C1034: x39+x42 <=1 
C1035: x39+x47-y39_47 <=1 
C1036: x39+x48-y39_48 <=1 
C1037: x39+x52-y39_52 <=1 
C1038: x39+x56-y39_56 <=1 
C1039: x39+x57 <=1 
C1040: x39+x60-y39_60 <=1 
C1041: x39+x62 <=1 
C1042: x39+x63 <=1 
C1043: x39+x64-y39_64 <=1 
C1044: x40+x41 <=1 
C1045: x40+x47 <=1 
C1046: x40+x48-y40_48 <=1 
C1047: x40+x50-y40_50 <=1 
C1048: x40+x51-y40_51 <=1 
C1049: x40+x52-y40_52 <=1 
C1050: x40+x53-y40_53 <=1 
C1051: x40+x54 <=1 
C1052: x40+x56 <=1 
C1053: x40+x57-y40_57 <=1 
C1054: x40+x59 <=1 
C1055: x40+x62 <=1 
C1056: x40+x63 <=1 
C1057: x40+x64-y40_64 <=1 
C1058: x41+x42 <=1 
C1059: x41+x43-y41_43 <=1 
C1060: x41+x45 <=1 
C1061: x41+x47 <=1 
C1062: x41+x48-y41_48 <=1 
C1063: x41+x50-y41_50 <=1 
C1064: x41+x51 <=1 
C1065: x41+x53-y41_53 <=1 
C1066: x41+x54 <=1 
C1067: x41+x55 <=1 
C1068: x41+x57 <=1 
C1069: x41+x58-y41_58 <=1 
C1070: x41+x60 <=1 
C1071: x41+x62 <=1 
C1072: x41+x63 <=1 
C1073: x41+x64 <=1 
C1074: x41+x65-y41_65 <=1 
C1075: x42+x43-y42_43 <=1 
C1076: x42+x44 <=1 
C1077: x42+x45 <=1 
C1078: x42+x46-y42_46 <=1 
C1079: x42+x48-y42_48 <=1 
C1080: x42+x52-y42_52 <=1 
C1081: x42+x55-y42_55 <=1 
C1082: x42+x58-y42_58 <=1 
C1083: x42+x59-y42_59 <=1 
C1084: x42+x65 <=1 
C1085: x43+x44-y43_44 <=1 
C1086: x43+x45 <=1 
C1087: x43+x46 <=1 
C1088: x43+x47-y43_47 <=1 
C1089: x43+x51 <=1 
C1090: x43+x52 <=1 
C1091: x43+x56 <=1 
C1092: x43+x58-y43_58 <=1 
C1093: x43+x60 <=1 
C1094: x43+x61-y43_61 <=1 
C1095: x43+x62 <=1 
C1096: x43+x63-y43_63 <=1 
C1097: x43+x64-y43_64 <=1 
C1098: x44+x46-y44_46 <=1 
C1099: x44+x50-y44_50 <=1 
C1100: x44+x51 <=1 
C1101: x44+x52-y44_52 <=1 
C1102: x44+x54-y44_54 <=1 
C1103: x44+x55-y44_55 <=1 
C1104: x44+x59 <=1 
C1105: x44+x60-y44_60 <=1 
C1106: x44+x62-y44_62 <=1 
C1107: x45+x49-y45_49 <=1 
C1108: x45+x50 <=1 
C1109: x45+x51 <=1 
C1110: x45+x52-y45_52 <=1 
C1111: x45+x54-y45_54 <=1 
C1112: x45+x55-y45_55 <=1 
C1113: x45+x56-y45_56 <=1 
C1114: x45+x58-y45_58 <=1 
C1115: x45+x60 <=1 
C1116: x45+x62-y45_62 <=1 
C1117: x45+x64 <=1 
C1118: x45+x65-y45_65 <=1 
C1119: x46+x47 <=1 
C1120: x46+x49 <=1 
C1121: x46+x51 <=1 
C1122: x46+x53 <=1 
C1123: x46+x54 <=1 
C1124: x46+x58 <=1 
C1125: x46+x60-y46_60 <=1 
C1126: x46+x62-y46_62 <=1 
C1127: x46+x64-y46_64 <=1 
C1128: x46+x65-y46_65 <=1 
C1129: x47+x48-y47_48 <=1 
C1130: x47+x50-y47_50 <=1 
C1131: x47+x51 <=1 
C1132: x47+x52-y47_52 <=1 
C1133: x47+x57 <=1 
C1134: x47+x58 <=1 
C1135: x47+x60 <=1 
C1136: x47+x61-y47_61 <=1 
C1137: x47+x63-y47_63 <=1 
C1138: x47+x64-y47_64 <=1 
C1139: x47+x65-y47_65 <=1 
C1140: x48+x50-y48_50 <=1 
C1141: x48+x53-y48_53 <=1 
C1142: x48+x56 <=1 
C1143: x48+x57-y48_57 <=1 
C1144: x48+x58-y48_58 <=1 
C1145: x48+x60-y48_60 <=1 
C1146: x48+x63 <=1 
C1147: x48+x64-y48_64 <=1 
C1148: x48+x65-y48_65 <=1 
C1149: x49+x50-y49_50 <=1 
C1150: x49+x52-y49_52 <=1 
C1151: x49+x53-y49_53 <=1 
C1152: x49+x54-y49_54 <=1 
C1153: x49+x55 <=1 
C1154: x49+x56 <=1 
C1155: x49+x59-y49_59 <=1 
C1156: x49+x60-y49_60 <=1 
C1157: x49+x61 <=1 
C1158: x49+x62-y49_62 <=1 
C1159: x49+x63-y49_63 <=1 
C1160: x49+x65 <=1 
C1161: x50+x54 <=1 
C1162: x50+x55 <=1 
C1163: x50+x56 <=1 
C1164: x50+x58-y50_58 <=1 
C1165: x50+x59-y50_59 <=1 
C1166: x50+x61 <=1 
C1167: x50+x62-y50_62 <=1 
C1168: x50+x63-y50_63 <=1 
C1169: x51+x52-y51_52 <=1 
C1170: x51+x53 <=1 
C1171: x51+x54 <=1 
C1172: x51+x55-y51_55 <=1 
C1173: x51+x56-y51_56 <=1 
C1174: x51+x57-y51_57 <=1 
C1175: x51+x58-y51_58 <=1 
C1176: x51+x59 <=1 
C1177: x51+x60-y51_60 <=1 
C1178: x51+x62-y51_62 <=1 
C1179: x51+x63 <=1 
C1180: x52+x53 <=1 
C1181: x52+x54-y52_54 <=1 
C1182: x52+x56-y52_56 <=1 
C1183: x52+x57-y52_57 <=1 
C1184: x52+x59-y52_59 <=1 
C1185: x52+x60 <=1 
C1186: x52+x61-y52_61 <=1 
C1187: x52+x62 <=1 
C1188: x52+x64-y52_64 <=1 
C1189: x52+x65 <=1 
C1190: x53+x54 <=1 
C1191: x53+x55-y53_55 <=1 
C1192: x53+x56-y53_56 <=1 
C1193: x53+x61 <=1 
C1194: x53+x63 <=1 
C1195: x53+x65-y53_65 <=1 
C1196: x54+x55 <=1 
C1197: x54+x57-y54_57 <=1 
C1198: x54+x58 <=1 
C1199: x54+x59-y54_59 <=1 
C1200: x54+x60-y54_60 <=1 
C1201: x54+x62 <=1 
C1202: x54+x63 <=1 
C1203: x54+x64 <=1 
C1204: x55+x62 <=1 
C1205: x55+x63 <=1 
C1206: x55+x64 <=1 
C1207: x56+x58-y56_58 <=1 
C1208: x56+x60-y56_60 <=1 
C1209: x56+x61-y56_61 <=1 
C1210: x56+x62-y56_62 <=1 
C1211: x56+x63-y56_63 <=1 
C1212: x56+x64-y56_64 <=1 
C1213: x56+x65-y56_65 <=1 
C1214: x57+x59 <=1 
C1215: x57+x60 <=1 
C1216: x57+x62-y57_62 <=1 
C1217: x57+x63 <=1 
C1218: x57+x64 <=1 
C1219: x58+x60-y58_60 <=1 
C1220: x58+x61 <=1 
C1221: x58+x64-y58_64 <=1 
C1222: x59+x60 <=1 
C1223: x59+x61-y59_61 <=1 
C1224: x59+x64 <=1 
C1225: x59+x65-y59_65 <=1 
C1226: x60+x63 <=1 
C1227: x60+x64-y60_64 <=1 
C1228: x61+x62-y61_62 <=1 
C1229: x61+x63-y61_63 <=1 
C1230: x62+x63-y62_63 <=1 
C1231: x62+x64 <=1 
C1232: x62+x65-y62_65 <=1 
C1233: x63+x64 <=1 
C1234: x64+x65 <=1 

binary
x0
x1
x2
x3
x4
x5
x6
x7
x8
x9
x10
x11
x12
x13
x14
x15
x16
x17
x18
x19
x20
x21
x22
x23
x24
x25
x26
x27
x28
x29
x30
x31
x32
x33
x34
x35
x36
x37
x38
x39
x40
x41
x42
x43
x44
x45
x46
x47
x48
x49
x50
x51
x52
x53
x54
x55
x56
x57
x58
x59
x60
x61
x62
x63
x64
x65
