problem_generation/data/GISP/train/er_n=66_m=1234_p=0.60_SET2_setparam=100.00_alpha=0.50_132.sol
objective value:                                 1275
x1                                                  1 	(obj:100)
x6                                                  1 	(obj:100)
x14                                                 1 	(obj:100)
x23                                                 1 	(obj:100)
x25                                                 1 	(obj:100)
x29                                                 1 	(obj:100)
x31                                                 1 	(obj:100)
x35                                                 1 	(obj:100)
x36                                                 1 	(obj:100)
x38                                                 1 	(obj:100)
x44                                                 1 	(obj:100)
x60                                                 1 	(obj:100)
x64                                                 1 	(obj:100)
y25_38                                              1 	(obj:-1)
y35_60                                              1 	(obj:-1)
y14_23                                              1 	(obj:-1)
y29_35                                              1 	(obj:-1)
y38_60                                              1 	(obj:-1)
y35_44                                              1 	(obj:-1)
y23_38                                              1 	(obj:-1)
y60_64                                              1 	(obj:-1)
y14_60                                              1 	(obj:-1)
y44_60                                              1 	(obj:-1)
y14_36                                              1 	(obj:-1)
y14_31                                              1 	(obj:-1)
y14_35                                              1 	(obj:-1)
y14_44                                              1 	(obj:-1)
y6_31                                               1 	(obj:-1)
y31_60                                              1 	(obj:-1)
y14_25                                              1 	(obj:-1)
y1_64                                               1 	(obj:-1)
y23_64                                              1 	(obj:-1)
y1_36                                               1 	(obj:-1)
y31_36                                              1 	(obj:-1)
y1_31                                               1 	(obj:-1)
y31_35                                              1 	(obj:-1)
y29_64                                              1 	(obj:-1)
y14_29                                              1 	(obj:-1)
